\ENCODING=ISO-8859-1
\Problem name: IloCplex

Minimize
 obj: - x1 - x2 - x3 - x4 - x5 - x6 - x7 - x8 - x9 - x10 - x11 - x12 - x13
      - x14 - x15 - x18 + 1
Subject To
 c1: 100 x1 + 100 x2 + 96 x3 + 94 x4 + 90 x5 + 88 x6 + 87 x7 + 85 x8 + 83 x9
     + 81 x10 + 80 x11 + 80 x12 + 77 x13 + 74 x14 + 65 x15 + 62 x16 + 62 x17
     + 62 x18 + 61 x19 + 59 x20 + 59 x21 + 57 x22 + 54 x23 + 51 x24 + 45 x25
     + 45 x26 + 40 x27 + 38 x28 + 37 x29 + 37 x30 + 37 x31 + 36 x32 + 29 x33
     + 29 x34 + 27 x35 + 26 x36 + 22 x37 + 22 x38 + 21 x39 + 17 x40 + 14 x41
     + 14 x42 + 8 x43 + 7 x44 + 6 x45 + 5 x46 + 5 x47 + 3 x48 + 3 x49 + x50
     <= 150
 c2: x7 + x18 <= 1
 c3: x8 + x20 <= 1
 c4: x8 + x18 <= 1
 c5: x15 + x20 <= 1
 c6: x16 + x24 <= 1
Bounds
 0 <= x1 <= 1
 0 <= x2 <= 1
 0 <= x3 <= 1
 0 <= x4 <= 1
 0 <= x5 <= 1
 0 <= x6 <= 1
 0 <= x7 <= 1
 0 <= x8 <= 1
 0 <= x9 <= 1
 0 <= x10 <= 1
 0 <= x11 <= 1
 0 <= x12 <= 1
      x13 = 1
 0 <= x14 <= 1
 0 <= x15 <= 1
 0 <= x16 <= 1
 0 <= x17 <= 1
 0 <= x18 <= 1
 0 <= x19 <= 1
      x20 = 1
 0 <= x21 <= 1
 0 <= x22 <= 1
 0 <= x23 <= 1
 0 <= x24 <= 1
 0 <= x25 <= 1
 0 <= x26 <= 1
 0 <= x27 <= 1
 0 <= x28 <= 1
 0 <= x29 <= 1
 0 <= x30 <= 1
 0 <= x31 <= 1
 0 <= x32 <= 1
 0 <= x33 <= 1
 0 <= x34 <= 1
 0 <= x35 <= 1
 0 <= x36 <= 1
 0 <= x37 <= 1
 0 <= x38 <= 1
 0 <= x39 <= 1
 0 <= x40 <= 1
 0 <= x41 <= 1
 0 <= x42 <= 1
 0 <= x43 <= 1
 0 <= x44 <= 1
 0 <= x45 <= 1
 0 <= x46 <= 1
 0 <= x47 <= 1
 0 <= x48 <= 1
 0 <= x49 <= 1
 0 <= x50 <= 1
Binaries
 x1  x2  x3  x4  x5  x6  x7  x8  x9  x10  x11  x12  x13  x14  x15  x16  x17 
 x18  x19  x20  x21  x22  x23  x24  x25  x26  x27  x28  x29  x30  x31  x32 
 x33  x34  x35  x36  x37  x38  x39  x40  x41  x42  x43  x44  x45  x46  x47 
 x48  x49  x50 
End
